
n_res = 4;
rcap = [80, 84, 196, 136];
rtype = [1, 1, 2, 2];
n_tasks = 100;
modes =  [{1, 2, 3}, {4, 5, 6}, {7, 8, 9}, {10, 11, 12}, {13, 14, 15}, {16, 17, 18}, {19, 20, 21}, {22, 23, 24}, {25, 26, 27}, {28, 29, 30}, {31, 32, 33}, {34, 35, 36}, {37, 38, 39}, {40, 41, 42}, {43, 44, 45}, {46, 47, 48}, {49, 50, 51}, {52, 53, 54}, {55, 56, 57}, {58, 59, 60}, {61, 62, 63}, {64, 65, 66}, {67, 68, 69}, {70, 71, 72}, {73, 74, 75}, {76, 77, 78}, {79, 80, 81}, {82, 83, 84}, {85, 86, 87}, {88, 89, 90}, {91, 92, 93}, {94, 95, 96}, {97, 98, 99}, {100, 101, 102}, {103, 104, 105}, {106, 107, 108}, {109, 110, 111}, {112, 113, 114}, {115, 116, 117}, {118, 119, 120}, {121, 122, 123}, {124, 125, 126}, {127, 128, 129}, {130, 131, 132}, {133, 134, 135}, {136, 137, 138}, {139, 140, 141}, {142, 143, 144}, {145, 146, 147}, {148, 149, 150}, {151, 152, 153}, {154, 155, 156}, {157, 158, 159}, {160, 161, 162}, {163, 164, 165}, {166, 167, 168}, {169, 170, 171}, {172, 173, 174}, {175, 176, 177}, {178, 179, 180}, {181, 182, 183}, {184, 185, 186}, {187, 188, 189}, {190, 191, 192}, {193, 194, 195}, {196, 197, 198}, {199, 200, 201}, {202, 203, 204}, {205, 206, 207}, {208, 209, 210}, {211, 212, 213}, {214, 215, 216}, {217, 218, 219}, {220, 221, 222}, {223, 224, 225}, {226, 227, 228}, {229, 230, 231}, {232, 233, 234}, {235, 236, 237}, {238, 239, 240}, {241, 242, 243}, {244, 245, 246}, {247, 248, 249}, {250, 251, 252}, {253, 254, 255}, {256, 257, 258}, {259, 260, 261}, {262, 263, 264}, {265, 266, 267}, {268, 269, 270}, {271, 272, 273}, {274, 275, 276}, {277, 278, 279}, {280, 281, 282}, {283, 284, 285}, {286, 287, 288}, {289, 290, 291}, {292, 293, 294}, {295, 296, 297}, {298, 299, 300}];
succ =  [{99, 98, 97, 95, 74, 73, 72, 67, 64, 62, 60, 58, 54, 48, 39, 36, 29, 23}, {100, 99, 98, 91, 72, 65, 64, 62, 58, 57, 51, 45, 39, 37, 32, 17}, {100, 96, 93, 64, 61, 54, 48, 46, 45, 43, 32, 28, 21}, {100, 99, 98, 96, 95, 91, 72, 66, 63, 62, 58, 56, 55, 51, 45, 39, 34, 28}, {98, 97, 96, 73, 72, 71, 66, 63, 62, 58, 55, 51, 49, 48, 43, 41, 39, 37}, {98, 97, 96, 94, 92, 74, 67, 61, 58, 56, 50, 49, 47, 43, 22}, {98, 97, 94, 92, 91, 89, 72, 65, 64, 63, 62, 59, 56, 51, 47, 46, 37, 34}, {99, 98, 97, 96, 95, 90, 74, 72, 59, 58, 53, 45, 39, 32}, {100, 99, 97, 96, 93, 91, 90, 85, 69, 64, 60, 58, 53, 51, 47, 39, 37}, {96, 95, 74, 64, 59, 54, 48, 32, 28}, {99, 96, 93, 90, 89, 81, 74, 70, 69, 67, 65, 61, 60, 59, 56, 55, 54, 50}, {96, 94, 93, 92, 89, 88, 82, 73, 72, 71, 69, 61, 59, 58, 53, 51, 37}, {96, 94, 93, 91, 87, 83, 74, 71, 67, 66, 65, 63, 58, 52, 49, 40}, {99, 98, 97, 94, 89, 86, 85, 78, 73, 71, 69, 67, 65, 64, 54, 48, 47}, {97, 89, 85, 67, 66, 65, 63, 62, 54, 51, 47, 34}, {99, 94, 93, 92, 91, 71, 63, 43, 28}, {96, 93, 90, 59, 56, 55, 28}, {98, 96, 92, 91, 90, 85, 81, 78, 70, 61, 36}, {99, 96, 93, 90, 88, 85, 80, 69, 60, 58, 57, 56, 54}, {95, 89, 86, 73, 72, 68, 62, 61, 59, 50, 47}, {97, 94, 91, 88, 87, 84, 82, 72, 58, 51, 37}, {100, 95, 91, 89, 87, 83, 80, 72, 71, 69, 60, 44}, {94, 92, 83, 81, 69, 66, 65, 63, 59, 51, 49}, {98, 95, 89, 85, 83, 79, 66, 65, 63, 62, 47}, {95, 92, 91, 90, 85, 83, 81, 65, 64, 63, 59, 51}, {94, 91, 90, 88, 85, 84, 83, 82, 81, 79, 70, 69, 67, 60}, {92, 91, 86, 85, 84, 83, 81, 76, 71, 70, 68, 64, 62}, {97, 89, 88, 86, 85, 79, 69, 67, 53, 47}, {96, 94, 92, 89, 84, 83, 82, 81, 79, 78, 70, 69, 68, 66}, {96, 95, 89, 88, 85, 83, 79, 78, 76, 67, 47}, {96, 90, 88, 87, 85, 83, 81, 67, 64, 63, 59}, {86, 85, 67, 63, 56, 47}, {97, 95, 94, 87, 86, 85, 80, 79, 76, 68, 62, 54}, {93, 90, 88, 86, 83, 82, 79, 78, 73, 70, 69, 68}, {98, 89, 88, 85, 84, 81, 79, 77, 67, 66, 63}, {93, 89, 84, 83, 69, 56, 51}, {95, 83, 81, 79, 78, 77, 76, 70, 67}, {86, 85, 84, 83, 82, 81, 80, 79, 78, 76, 75}, {94, 89, 88, 81, 80, 78, 77, 76, 68}, {89, 84, 81, 80, 76, 75, 69, 64}, {93, 92, 87, 86, 84, 80, 76, 68}, {99, 85, 81, 80, 79, 77, 67}, {90, 87, 80, 79, 75, 60}, {93, 90, 82, 81, 79, 78, 68}, {87, 84, 82, 81, 79, 78, 76}, {84, 82, 80, 79, 78, 77, 76}, {87, 84, 81, 77, 75, 70}, {92, 88, 82, 81, 79, 77}, {88, 86, 85, 78, 76, 75}, {87, 82, 76, 75, 71}, {86, 79, 76, 68}, {81, 78, 77, 68}, {83, 80, 76, 75}, {91, 83, 77, 75}, {92, 85, 78, 75}, {87, 82, 71}, {77, 76, 68}, {81, 78, 75}, {84, 80, 78}, {86, 78, 76}, {87, 83, 76}, {78, 69}, {78, 76}, {82, 77}, {82, 77}, {90, 76}, {68}, {75}, {77}, {80}, {79}, {85}, {76}, {88}, {}, {}, {}, {}, {}, {}, {}, {}, {}, {}, {}, {}, {}, {}, {}, {}, {}, {}, {}, {}, {}, {}, {}, {}, {}, {}];
n_opt = 300;
dur = [3, 6, 10, 6, 7, 9, 1, 2, 6, 5, 6, 9, 4, 9, 10, 2, 7, 10, 5, 6, 6, 2, 7, 9, 1, 4, 7, 2, 6, 9, 2, 3, 8, 1, 3, 9, 6, 6, 9, 1, 6, 7, 8, 9, 10, 3, 6, 7, 1, 4, 10, 3, 8, 9, 4, 5, 10, 8, 9, 10, 3, 4, 5, 2, 7, 7, 6, 7, 8, 1, 1, 4, 2, 2, 3, 1, 4, 7, 1, 7, 9, 2, 7, 9, 1, 7, 8, 3, 4, 7, 2, 4, 8, 5, 6, 8, 1, 1, 10, 2, 2, 10, 5, 6, 7, 2, 5, 8, 4, 5, 7, 3, 5, 5, 4, 5, 6, 4, 6, 7, 3, 5, 7, 1, 2, 8, 3, 7, 8, 2, 3, 8, 3, 8, 9, 2, 3, 3, 5, 8, 9, 3, 4, 9, 6, 8, 9, 6, 9, 9, 2, 7, 9, 3, 7, 9, 4, 6, 10, 1, 2, 6, 2, 4, 9, 3, 5, 7, 2, 6, 8, 1, 2, 4, 2, 5, 5, 4, 6, 8, 1, 5, 6, 2, 6, 8, 4, 4, 8, 1, 3, 8, 1, 2, 5, 2, 8, 9, 3, 7, 7, 5, 6, 10, 1, 3, 7, 4, 7, 9, 1, 3, 9, 1, 4, 8, 4, 4, 8, 5, 5, 6, 3, 5, 7, 1, 8, 8, 2, 3, 3, 1, 4, 10, 2, 3, 6, 3, 4, 7, 1, 6, 9, 1, 1, 7, 5, 6, 9, 3, 4, 6, 1, 4, 8, 2, 3, 10, 1, 4, 8, 2, 9, 10, 2, 3, 6, 6, 6, 7, 1, 5, 5, 2, 9, 10, 1, 10, 10, 1, 3, 4, 2, 3, 9, 1, 8, 9, 3, 5, 5, 1, 9, 10, 6, 7, 9, 7, 9, 10];
rreq = [|0, 7, 6, 0, 0, 0, 0, 0, 5, 0, 0, 0, 3, 0, 0, 0, 0, 0, 5, 3, 0, 4, 0, 0, 8, 0, 1, 0, 0, 0, 0, 0, 0, 10, 9, 9, 0, 0, 0, 0, 9, 8, 9, 8, 0, 9, 7, 0, 0, 3, 1, 0, 6, 0, 10, 0, 0, 0, 8, 7, 0, 0, 0, 0, 2, 0, 4, 3, 2, 0, 0, 7, 1, 0, 1, 7, 7, 2, 0, 8, 8, 0, 7, 7, 5, 3, 2, 0, 5, 0, 3, 2, 0, 0, 5, 5, 8, 0, 0, 6, 0, 0, 0, 6, 0, 6, 0, 6, 10, 6, 0, 6, 0, 6, 0, 0, 7, 0, 0, 1, 0, 3, 2, 7, 0, 0, 5, 0, 0, 6, 0, 0, 8, 0, 8, 7, 0, 7, 3, 0, 2, 8, 6, 4, 0, 6, 5, 0, 2, 0, 10, 0, 3, 0, 6, 0, 10, 0, 7, 8, 0, 3, 0, 0, 0, 0, 4, 2, 0, 0, 3, 7, 0, 2, 9, 0, 8, 8, 0, 4, 0, 9, 9, 9, 0, 8, 0, 0, 1, 0, 0, 4, 0, 0, 4, 0, 0, 9, 4, 0, 0, 0, 9, 9, 7, 4, 1, 0, 3, 3, 0, 0, 0, 0, 0, 5, 6, 0, 3, 0, 0, 0, 9, 7, 7, 0, 3, 0, 0, 5, 0, 8, 0, 6, 9, 0, 0, 8, 0, 7, 0, 6, 0, 0, 4, 0, 10, 0, 0, 7, 0, 5, 9, 0, 6, 0, 5, 5, 4, 3, 0, 9, 0, 2, 7, 4, 3, 4, 2, 0, 9, 0, 7, 0, 0, 7, 0, 3, 3, 9, 8, 0, 5, 0, 2, 7, 0, 6, 0, 2, 2, 10, 0, 0, 0, 7, 4, 10, 0, 0
 |7, 0, 0, 4, 3, 2, 4, 3, 0, 6, 5, 5, 0, 5, 5, 3, 3, 2, 0, 0, 4, 0, 7, 7, 0, 8, 0, 9, 7, 1, 1, 1, 1, 0, 0, 0, 7, 7, 7, 6, 0, 0, 0, 0, 6, 0, 0, 5, 9, 0, 0, 7, 0, 3, 0, 5, 3, 7, 0, 0, 8, 7, 4, 5, 0, 4, 0, 0, 0, 6, 6, 0, 0, 9, 0, 0, 0, 0, 4, 0, 0, 7, 0, 0, 0, 0, 0, 4, 0, 3, 0, 0, 3, 5, 0, 0, 0, 6, 5, 0, 5, 5, 7, 0, 6, 0, 3, 0, 0, 0, 5, 0, 5, 0, 3, 3, 0, 5, 5, 0, 10, 0, 0, 0, 7, 6, 0, 6, 3, 0, 3, 2, 0, 8, 0, 0, 7, 0, 0, 6, 0, 0, 0, 0, 6, 0, 0, 5, 0, 2, 0, 5, 0, 5, 0, 4, 0, 7, 0, 0, 9, 0, 10, 9, 8, 3, 0, 0, 4, 4, 0, 0, 7, 0, 0, 6, 0, 0, 3, 0, 7, 0, 0, 0, 7, 0, 7, 6, 0, 4, 4, 0, 6, 4, 0, 9, 9, 0, 0, 9, 8, 9, 0, 0, 0, 0, 0, 9, 0, 0, 9, 8, 7, 7, 7, 0, 0, 7, 0, 5, 4, 1, 0, 0, 0, 6, 0, 6, 7, 0, 6, 0, 3, 0, 0, 4, 3, 0, 9, 0, 8, 0, 8, 9, 0, 6, 0, 2, 2, 0, 2, 0, 0, 3, 0, 7, 0, 0, 0, 0, 2, 0, 1, 0, 0, 0, 0, 0, 0, 3, 0, 6, 0, 7, 6, 0, 5, 0, 0, 0, 0, 2, 0, 1, 0, 0, 7, 0, 9, 0, 0, 0, 5, 5, 8, 0, 0, 0, 2, 2
 |0, 0, 0, 10, 7, 6, 0, 0, 7, 0, 7, 0, 0, 0, 2, 8, 7, 0, 0, 6, 4, 9, 0, 5, 3, 3, 1, 0, 0, 4, 10, 0, 0, 0, 2, 1, 10, 0, 9, 5, 0, 0, 0, 0, 3, 10, 5, 3, 10, 8, 0, 8, 0, 0, 0, 0, 3, 0, 2, 0, 0, 0, 0, 6, 4, 0, 0, 0, 0, 0, 6, 0, 2, 0, 1, 7, 6, 3, 9, 0, 7, 7, 7, 6, 7, 6, 4, 0, 0, 2, 0, 9, 9, 10, 0, 0, 8, 0, 0, 5, 4, 3, 6, 5, 4, 0, 6, 0, 0, 0, 0, 7, 7, 6, 0, 3, 0, 8, 7, 5, 8, 5, 5, 7, 0, 0, 0, 0, 0, 10, 0, 8, 0, 0, 0, 6, 5, 0, 7, 4, 2, 0, 0, 8, 0, 4, 4, 0, 0, 0, 0, 8, 7, 0, 7, 3, 0, 7, 0, 0, 0, 0, 8, 4, 4, 0, 4, 4, 0, 8, 0, 5, 0, 1, 7, 0, 3, 0, 9, 0, 0, 0, 0, 0, 9, 0, 0, 3, 0, 5, 4, 5, 7, 5, 3, 0, 5, 5, 0, 4, 0, 9, 5, 4, 5, 3, 1, 7, 0, 5, 4, 0, 0, 8, 7, 6, 0, 8, 8, 6, 0, 0, 0, 3, 0, 10, 0, 3, 0, 1, 0, 0, 0, 4, 0, 8, 4, 7, 3, 1, 10, 9, 8, 7, 0, 0, 6, 3, 0, 0, 0, 0, 0, 7, 0, 0, 0, 7, 2, 0, 1, 0, 1, 0, 0, 7, 0, 4, 0, 0, 10, 0, 0, 3, 0, 1, 7, 0, 5, 2, 0, 0, 8, 0, 0, 3, 2, 0, 2, 2, 0, 8, 0, 8, 0, 2, 2, 0, 7, 4
 |7, 6, 4, 0, 0, 0, 4, 3, 0, 5, 0, 2, 6, 4, 0, 0, 0, 1, 6, 0, 0, 0, 6, 0, 0, 0, 0, 3, 2, 0, 0, 3, 2, 7, 0, 0, 0, 2, 0, 0, 5, 4, 2, 2, 0, 0, 0, 0, 0, 0, 2, 0, 6, 2, 7, 6, 0, 7, 0, 5, 6, 5, 3, 0, 0, 1, 5, 3, 1, 6, 0, 5, 0, 3, 0, 0, 0, 0, 0, 3, 0, 0, 0, 0, 0, 0, 0, 8, 6, 0, 3, 0, 0, 0, 2, 1, 0, 3, 2, 0, 0, 0, 0, 0, 0, 9, 0, 6, 5, 4, 2, 0, 0, 0, 9, 0, 6, 0, 0, 0, 0, 0, 0, 0, 1, 1, 8, 5, 4, 0, 4, 0, 8, 5, 4, 0, 0, 8, 0, 0, 0, 8, 4, 0, 7, 0, 0, 7, 6, 6, 7, 0, 0, 2, 0, 0, 9, 0, 3, 9, 6, 3, 0, 0, 0, 9, 0, 0, 3, 0, 1, 0, 1, 0, 0, 8, 0, 6, 0, 1, 9, 7, 6, 6, 0, 4, 2, 0, 1, 0, 0, 0, 0, 0, 0, 8, 0, 0, 10, 0, 4, 0, 0, 0, 0, 0, 0, 0, 3, 0, 0, 8, 6, 0, 0, 0, 6, 0, 0, 0, 4, 3, 3, 0, 1, 0, 8, 0, 8, 0, 7, 3, 2, 0, 10, 0, 0, 0, 0, 0, 0, 0, 0, 0, 5, 4, 0, 0, 7, 9, 5, 2, 5, 0, 1, 9, 6, 0, 0, 6, 0, 6, 0, 6, 7, 0, 2, 0, 8, 7, 0, 7, 4, 0, 7, 0, 0, 5, 0, 0, 6, 5, 0, 1, 1, 0, 0, 9, 0, 0, 2, 0, 3, 0, 4, 0, 0, 8, 0, 0|];